% =============================================================================
% Cork Variant: Single Cycle
% =============================================================================
% Original: cork-3-lines20_0
% Variant: First cycle only (42 stops)
% Generated by Cork Variant Generator
%
% Modification: Extracted first operational cycle from full-day instance
% to make it feasible with standard CLP parameters.
%
% Original problem: 13-14 cycles per day (378-568 stops) → INFEASIBLE
% This variant: 1 cycle (~42 stops) → FEASIBLE
% =============================================================================

% --- Problem Dimensions ---
num_buses = 16;
num_stations = 157;

% --- Energy Parameters (CLP Model) ---
Cmax = 1000;  % 100 kWh
Cmin = 200;   % 20 kWh
alpha = 100;  % 10 kWh/min

% --- Time and Schedule Parameters ---
mu = 50;      % 5 min
SM = 10;      % 1 min
psi = 10;     % 1 min
beta = 100;   % 10 min
M = 100000;

% --- Route Structure ---
max_stops = 42;
num_stops = [20,22,20,20,7,6,7,6,6,6,7,1,7,7,1,7];

% --- Station Sequence (st_bi) ---
st_bi = array2d(1..16, 1..42, [
  0,1,2,3,4,5,6,7,8,9,10,11,12,13,14,15,16,17,18,19,19,20,21,22,23,24,25,26,27,28,29,30,31,32,33,34,35,36,37,38,39,0,  % Bus 1
  19,20,21,22,23,24,25,26,27,28,29,30,31,32,33,34,35,36,37,38,39,0,0,1,2,3,4,5,6,7,8,9,10,11,12,13,14,15,16,17,18,19,  % Bus 2
  0,1,2,3,4,5,6,7,8,9,10,11,12,13,14,15,16,17,18,19,19,20,21,22,23,24,25,26,27,28,29,30,31,32,33,34,35,36,37,38,39,0,  % Bus 3
  0,1,2,3,4,5,6,7,8,9,10,11,12,13,14,15,16,17,18,19,19,20,21,22,23,24,25,26,27,28,29,30,31,32,33,34,35,36,37,38,39,0,  % Bus 4
  59,60,61,62,63,64,65,66,67,68,69,70,71,72,73,74,75,76,77,77,100,101,102,103,104,105,106,107,108,109,110,111,112,113,114,115,116,81,78,82,83,39,  % Bus 5
  78,82,83,39,84,85,86,87,88,89,90,91,92,93,94,95,96,97,98,99,79,80,40,41,42,43,44,45,46,47,48,49,50,51,52,53,54,55,56,57,58,59,  % Bus 6
  59,60,61,62,63,64,65,66,67,68,69,70,71,72,73,74,75,76,77,77,100,101,102,103,104,105,106,107,108,109,110,111,112,113,114,115,116,81,78,82,83,39,  % Bus 7
  78,82,83,39,84,85,86,87,88,89,90,91,92,93,94,95,96,97,98,99,79,80,40,41,42,43,44,45,46,47,48,49,50,51,52,53,54,55,56,57,58,59,  % Bus 8
  78,82,83,39,84,85,86,87,88,89,90,91,92,93,94,95,96,97,98,99,79,80,40,41,42,43,44,45,46,47,48,49,50,51,52,53,54,55,56,57,58,59,  % Bus 9
  40,41,42,43,44,45,46,47,48,49,50,51,52,53,54,55,56,57,58,59,60,61,62,63,64,65,66,67,68,69,70,71,72,73,74,75,76,77,77,100,101,102,  % Bus 10
  117,118,78,78,82,119,120,121,122,123,124,125,126,127,128,129,130,131,132,133,134,134,136,137,138,139,140,141,142,143,144,145,146,147,148,149,150,151,152,153,154,155,  % Bus 11
  134,136,137,138,139,140,141,142,143,144,145,146,147,148,149,150,151,152,153,154,155,58,135,156,117,117,118,78,78,82,119,120,121,122,123,124,125,126,127,128,129,130,  % Bus 12
  117,118,78,78,82,119,120,121,122,123,124,125,126,127,128,129,130,131,132,133,134,134,136,137,138,139,140,141,142,143,144,145,146,147,148,149,150,151,152,153,154,155,  % Bus 13
  117,118,78,78,82,119,120,121,122,123,124,125,126,127,128,129,130,131,132,133,134,134,136,137,138,139,140,141,142,143,144,145,146,147,148,149,150,151,152,153,154,155,  % Bus 14
  134,136,137,138,139,140,141,142,143,144,145,146,147,148,149,150,151,152,153,154,155,58,135,156,117,117,118,78,78,82,119,120,121,122,123,124,125,126,127,128,129,130,  % Bus 15
  117,118,78,78,82,119,120,121,122,123,124,125,126,127,128,129,130,131,132,133,134,134,136,137,138,139,140,141,142,143,144,145,146,147,148,149,150,151,152,153,154,155  % Bus 16
]);

% --- Energy Consumption (D) ---
D = array2d(1..16, 1..42, [
  0,6,3,3,3,3,3,3,3,3,3,3,3,3,3,3,3,3,3,3,0,2,2,3,3,3,3,3,3,3,3,3,3,2,2,2,3,3,3,3,3,8,  % Bus 1
  0,2,2,2,2,2,2,2,2,2,2,2,2,2,2,2,3,3,3,3,3,8,0,6,3,3,3,3,3,3,3,3,3,3,3,3,3,3,3,3,3,3,  % Bus 2
  0,6,3,3,3,3,3,3,3,3,3,3,3,3,3,3,3,3,3,3,0,2,2,3,3,3,3,3,3,3,3,3,3,2,2,2,3,3,3,3,3,8,  % Bus 3
  0,6,3,3,3,3,3,3,3,3,3,3,3,3,3,3,3,3,3,3,0,2,2,3,3,3,3,3,3,3,3,3,3,2,2,2,3,3,3,3,3,8,  % Bus 4
  0,4,2,2,2,2,2,0,4,2,2,2,0,2,2,0,2,0,2,10,0,2,0,2,0,2,0,2,2,2,2,2,3,3,2,3,2,4,10,2,3,3,  % Bus 5
  0,2,3,3,2,3,0,2,2,2,2,0,2,2,2,2,0,2,0,3,2,2,6,3,3,2,2,2,0,2,2,2,2,0,2,2,2,2,0,2,4,6,  % Bus 6
  0,4,2,2,2,2,2,0,4,2,2,2,0,2,2,0,2,0,2,10,0,2,0,2,0,2,0,2,2,2,2,2,4,3,2,3,2,8,13,2,3,3,  % Bus 7
  0,2,3,3,2,3,0,2,2,2,2,0,2,2,2,2,0,2,0,3,2,2,6,4,4,2,2,2,0,2,3,2,0,2,2,3,4,2,2,3,6,6,  % Bus 8
  0,2,3,3,2,3,0,2,2,2,2,0,2,2,2,2,0,2,0,3,2,2,13,4,4,2,2,2,0,2,3,2,0,2,2,3,4,2,2,3,6,6,  % Bus 9
  0,4,4,2,2,2,0,2,3,2,0,2,2,3,4,2,2,3,6,6,6,3,2,2,2,2,0,4,2,2,2,2,2,0,2,0,2,0,12,0,2,0,  % Bus 10
  0,9,3,3,2,6,3,0,3,3,3,2,2,2,4,0,2,2,2,4,3,4,0,2,2,2,2,3,2,2,2,2,2,3,0,2,2,2,2,3,2,2,  % Bus 11
  0,0,2,2,2,2,3,2,2,2,2,2,3,0,2,2,2,2,3,2,2,3,2,3,4,9,9,3,6,2,6,3,0,3,3,3,2,2,2,4,0,2,  % Bus 12
  0,9,3,3,2,6,3,0,3,3,3,2,2,2,4,0,2,2,2,4,3,4,0,2,2,2,2,3,2,2,2,2,2,3,0,2,2,2,2,3,2,2,  % Bus 13
  0,9,3,3,2,6,3,0,3,3,3,2,2,2,4,0,2,2,2,4,3,12,0,2,2,2,2,3,2,2,2,2,2,3,0,2,2,2,2,3,2,2,  % Bus 14
  0,0,2,2,2,2,3,2,2,2,2,2,3,0,2,2,2,2,3,2,2,3,2,3,4,46,9,3,6,2,9,3,2,3,3,3,0,2,2,4,2,2,  % Bus 15
  0,9,3,6,2,6,3,0,3,3,3,2,2,2,4,0,2,2,2,4,3,9,0,2,3,4,4,4,3,2,2,2,2,3,0,2,2,2,3,3,2,2  % Bus 16
]);

% --- Travel Time (T) ---
T = array2d(1..16, 1..42, [
  0,40,20,20,20,20,20,20,20,20,20,20,20,20,20,20,20,20,20,20,0,10,10,20,20,20,20,20,20,20,20,20,20,10,10,10,20,20,20,20,20,50,  % Bus 1
  0,10,10,10,10,10,10,10,10,10,10,10,10,10,10,10,20,20,20,20,20,50,0,40,20,20,20,20,20,20,20,20,20,20,20,20,20,20,20,20,20,20,  % Bus 2
  0,40,20,20,20,20,20,20,20,20,20,20,20,20,20,20,20,20,20,20,0,10,10,20,20,20,20,20,20,20,20,20,20,10,10,10,20,20,20,20,20,50,  % Bus 3
  0,40,20,20,20,20,20,20,20,20,20,20,20,20,20,20,20,20,20,20,0,10,10,20,20,20,20,20,20,20,20,20,20,10,10,10,20,20,20,20,20,50,  % Bus 4
  0,30,10,10,10,10,10,0,30,10,10,10,0,10,10,0,10,0,10,70,0,10,0,10,0,10,0,10,10,10,10,10,20,20,10,20,10,30,70,10,20,20,  % Bus 5
  0,10,20,20,10,20,0,10,10,10,10,0,10,10,10,10,0,10,0,20,10,10,40,20,20,10,10,10,0,10,10,10,10,0,10,10,10,10,0,10,30,40,  % Bus 6
  0,30,10,10,10,10,10,0,30,10,10,10,0,10,10,0,10,0,10,70,0,10,0,10,0,10,0,10,10,10,10,10,30,20,10,20,10,50,90,10,20,20,  % Bus 7
  0,10,20,20,10,20,0,10,10,10,10,0,10,10,10,10,0,10,0,20,10,10,40,30,30,10,10,10,0,10,20,10,0,10,10,20,30,10,10,20,40,40,  % Bus 8
  0,10,20,20,10,20,0,10,10,10,10,0,10,10,10,10,0,10,0,20,10,10,90,30,30,10,10,10,0,10,20,10,0,10,10,20,30,10,10,20,40,40,  % Bus 9
  0,30,30,10,10,10,0,10,20,10,0,10,10,20,30,10,10,20,40,40,40,20,10,10,10,10,0,30,10,10,10,10,10,0,10,0,10,0,80,0,10,0,  % Bus 10
  0,60,20,20,10,40,20,0,20,20,20,10,10,10,30,0,10,10,10,30,20,30,0,10,10,10,10,20,10,10,10,10,10,20,0,10,10,10,10,20,10,10,  % Bus 11
  0,0,10,10,10,10,20,10,10,10,10,10,20,0,10,10,10,10,20,10,10,20,10,20,30,60,60,20,40,10,40,20,0,20,20,20,10,10,10,30,0,10,  % Bus 12
  0,60,20,20,10,40,20,0,20,20,20,10,10,10,30,0,10,10,10,30,20,30,0,10,10,10,10,20,10,10,10,10,10,20,0,10,10,10,10,20,10,10,  % Bus 13
  0,60,20,20,10,40,20,0,20,20,20,10,10,10,30,0,10,10,10,30,20,80,0,10,10,10,10,20,10,10,10,10,10,20,0,10,10,10,10,20,10,10,  % Bus 14
  0,0,10,10,10,10,20,10,10,10,10,10,20,0,10,10,10,10,20,10,10,20,10,20,30,310,60,20,40,10,60,20,10,20,20,20,0,10,10,30,10,10,  % Bus 15
  0,60,20,40,10,40,20,0,20,20,20,10,10,10,30,0,10,10,10,30,20,60,0,10,20,30,30,30,20,10,10,10,10,20,0,10,10,10,20,20,10,10  % Bus 16
]);

% --- Timetable (tau_bi) ---
tau_bi = array2d(1..16, 1..42, [
  4200,4240,4260,4280,4300,4320,4340,4360,4380,4400,4420,4440,4460,4480,4500,4520,4540,4560,4580,4600,4600,4610,4620,4640,4660,4680,4700,4720,4740,4760,4780,4800,4820,4830,4840,4850,4870,4890,4910,4930,4950,5000,  % Bus 1
  4300,4310,4320,4330,4340,4350,4360,4370,4380,4390,4400,4410,4420,4430,4440,4450,4470,4490,4510,4530,4550,4600,4600,4640,4660,4680,4700,4720,4740,4760,4780,4800,4820,4840,4860,4880,4900,4920,4940,4960,4980,5000,  % Bus 2
  4400,4440,4460,4480,4500,4520,4540,4560,4580,4600,4620,4640,4660,4680,4700,4720,4740,4760,4780,4800,4800,4810,4820,4840,4860,4880,4900,4920,4940,4960,4980,5000,5020,5030,5040,5050,5070,5090,5110,5130,5150,5200,  % Bus 3
  4800,4840,4860,4880,4900,4920,4940,4960,4980,5000,5020,5040,5060,5080,5100,5120,5140,5160,5180,5200,5200,5210,5220,5240,5260,5280,5300,5320,5340,5360,5380,5400,5420,5430,5440,5450,5470,5490,5510,5530,5550,5600,  % Bus 4
  4100,4130,4140,4150,4160,4170,4180,4180,4210,4220,4230,4240,4240,4250,4260,4260,4270,4270,4280,4350,4350,4360,4360,4370,4370,4380,4380,4390,4400,4410,4420,4430,4450,4470,4480,4500,4510,4540,4610,4620,4640,4660,  % Bus 5
  3900,3910,3930,3950,3960,3980,3980,3990,4000,4010,4020,4020,4030,4040,4050,4060,4060,4070,4070,4090,4100,4110,4150,4170,4190,4200,4210,4220,4220,4230,4240,4250,4260,4260,4270,4280,4290,4300,4300,4310,4340,4380,  % Bus 6
  4300,4330,4340,4350,4360,4370,4380,4380,4410,4420,4430,4440,4440,4450,4460,4460,4470,4470,4480,4550,4550,4560,4560,4570,4570,4580,4580,4590,4600,4610,4620,4630,4660,4680,4690,4710,4720,4770,4860,4870,4890,4910,  % Bus 7
  4100,4110,4130,4150,4160,4180,4180,4190,4200,4210,4220,4220,4230,4240,4250,4260,4260,4270,4270,4290,4300,4310,4350,4380,4410,4420,4430,4440,4440,4450,4470,4480,4480,4490,4500,4520,4550,4560,4570,4590,4630,4670,  % Bus 8
  4400,4410,4430,4450,4460,4480,4480,4490,4500,4510,4520,4520,4530,4540,4550,4560,4560,4570,4570,4590,4600,4610,4700,4730,4760,4770,4780,4790,4790,4800,4820,4830,4830,4840,4850,4870,4900,4910,4920,4940,4980,5020,  % Bus 9
  4550,4580,4610,4620,4630,4640,4640,4650,4670,4680,4680,4690,4700,4720,4750,4760,4770,4790,4830,4870,4910,4930,4940,4950,4960,4970,4970,5000,5010,5020,5030,5040,5050,5050,5060,5060,5070,5070,5150,5150,5160,5160,  % Bus 10
  3800,3860,3880,3900,3910,3950,3970,3970,3990,4010,4030,4040,4050,4060,4090,4090,4100,4110,4120,4150,4170,4200,4200,4210,4220,4230,4240,4260,4270,4280,4290,4300,4310,4330,4330,4340,4350,4360,4370,4390,4400,4410,  % Bus 11
  4000,4000,4010,4020,4030,4040,4060,4070,4080,4090,4100,4110,4130,4130,4140,4150,4160,4170,4190,4200,4210,4230,4240,4260,4290,4350,4410,4430,4470,4480,4520,4540,4540,4560,4580,4600,4610,4620,4630,4660,4660,4670,  % Bus 12
  4000,4060,4080,4100,4110,4150,4170,4170,4190,4210,4230,4240,4250,4260,4290,4290,4300,4310,4320,4350,4370,4400,4400,4410,4420,4430,4440,4460,4470,4480,4490,4500,4510,4530,4530,4540,4550,4560,4570,4590,4600,4610,  % Bus 13
  4200,4260,4280,4300,4310,4350,4370,4370,4390,4410,4430,4440,4450,4460,4490,4490,4500,4510,4520,4550,4570,4650,4650,4660,4670,4680,4690,4710,4720,4730,4740,4750,4760,4780,4780,4790,4800,4810,4820,4840,4850,4860,  % Bus 14
  4500,4500,4510,4520,4530,4540,4560,4570,4580,4590,4600,4610,4630,4630,4640,4650,4660,4670,4690,4700,4710,4730,4740,4760,4790,5100,5160,5180,5220,5230,5290,5310,5320,5340,5360,5380,5380,5390,5400,5430,5440,5450,  % Bus 15
  4650,4710,4730,4770,4780,4820,4840,4840,4860,4880,4900,4910,4920,4930,4960,4960,4970,4980,4990,5020,5040,5100,5100,5110,5130,5160,5190,5220,5240,5250,5260,5270,5280,5300,5300,5310,5320,5330,5350,5370,5380,5390  % Bus 16
]);
